100 3011
852 973 990 882 688 311 1128 442 445 425 1013 593 553 564 677 534 564 1048 953 952 312 805 250 574 847 573 910 270 1092 775 1179 1014 1086 429 1014 555 759 1061 989 586 306 948 760 417 785 513 355 1115 563 768 1165 1121 249 283 226 520 745 514 726 737 742 816 576 480 625 563 823 600 987 492 1039 405 311 456 1141 1104 1068 1027 558 574 449 988 300 672 663 1139 744 765 1050 1029 856 756 736 699 210 709 407 982 935 627 
652 773 790 682 488 111 928 242 245 225 813 393 353 264 477 234 364 848 753 752 112 605 50 374 647 373 710 70 792 575 979 814 786 229 714 355 559 861 789 386 106 748 560 217 585 313 155 915 363 568 965 921 49 83 26 320 545 314 526 537 542 516 376 180 425 363 623 300 787 292 839 205 111 156 941 904 868 827 358 374 249 788 100 472 463 939 544 565 850 829 656 556 536 499 10 509 207 782 735 427 
